*NAME:         misc02
*ROWS:         39
*COLUMNS:      59
*INTEGER:      58
*NONZERO:      413
*BEST SOLN:    1690 (opt)
*LP SOLN:      1010.0
*SOURCE:       
*      
*              Greg Astfalk (Convex)
*APPLICATION:  unknown
*COMMENTS:     all integer variables are binary
*      
*      
NAME          MISC02
ROWS
 N  ROW040  
 E  ROW001  
 E  ROW002  
 E  ROW003  
 E  ROW004  
 L  ROW005  
 L  ROW006  
 G  ROW007  
 G  ROW008  
 G  ROW009  
 G  ROW010  
 G  ROW011  
 G  ROW012  
 G  ROW013  
 E  ROW014  
 E  ROW015  
 E  ROW016  
 E  ROW017  
 E  ROW018  
 E  ROW019  
 E  ROW020  
 E  ROW021  
 E  ROW022  
 E  ROW023  
 L  ROW024  
 L  ROW025  
 L  ROW026  
 L  ROW027  
 L  ROW028  
 L  ROW029  
 L  ROW030  
 L  ROW031  
 L  ROW032  
 L  ROW033  
 L  ROW034  
 L  ROW035  
 L  ROW036  
 L  ROW037  
 L  ROW038  
 L  ROW039  
COLUMNS
    MARK0000  'MARKER'                 'INTORG'
    COL001    ROW002               1   ROW005             100
    COL001    ROW028               1   ROW030               1
    COL002    ROW002               1   ROW006             100
    COL002    ROW029               1   ROW031               1
    COL003    ROW001            -110   ROW002               1
    COL003    ROW005             100   ROW007               1
    COL003    ROW011               1   ROW014               1
    COL003    ROW015              -1   ROW028               1
    COL003    ROW030               1
    COL004    ROW001            -110   ROW002               1
    COL004    ROW006             100   ROW007               1
    COL004    ROW011               1   ROW019               1
    COL004    ROW020              -1   ROW029               1
    COL004    ROW031               1
    COL005    ROW001            -470   ROW002               1
    COL005    ROW005             100   ROW007               1
    COL005    ROW009               1   ROW014               1
    COL005    ROW016              -1   ROW028               1
    COL005    ROW030               1
    COL006    ROW001            -470   ROW002               1
    COL006    ROW006             100   ROW007               1
    COL006    ROW009               1   ROW019               1
    COL006    ROW021              -1   ROW029               1
    COL006    ROW031               1
    COL007    ROW001            -250   ROW002               1
    COL007    ROW005             100   ROW014               1
    COL007    ROW017              -1   ROW024               1
    COL007    ROW028               1   ROW030               1
    COL008    ROW001            -250   ROW002               1
    COL008    ROW006             100   ROW019               1
    COL008    ROW022              -1   ROW025               1
    COL008    ROW029               1   ROW031               1
    COL009    ROW001            -205   ROW002               1
    COL009    ROW005             100   ROW014               1
    COL009    ROW018              -1   ROW024               1
    COL009    ROW028               1   ROW030               1
    COL010    ROW001            -205   ROW002               1
    COL010    ROW006             100   ROW019               1
    COL010    ROW023              -1   ROW025               1
    COL010    ROW029               1   ROW031               1
    COL011    ROW001            -110   ROW003               1
    COL011    ROW005             100   ROW008               1
    COL011    ROW012               1   ROW014              -1
    COL011    ROW015               1   ROW032               1
    COL011    ROW034               1
    COL012    ROW001            -110   ROW003               1
    COL012    ROW006             100   ROW008               1
    COL012    ROW012               1   ROW019              -1
    COL012    ROW020               1   ROW033               1
    COL012    ROW035               1
    COL013    ROW003               1   ROW005             100
    COL013    ROW032               1   ROW034               1
    COL014    ROW003               1   ROW006             100
    COL014    ROW033               1   ROW035               1
    COL015    ROW001            -475   ROW003               1
    COL015    ROW005             100   ROW008               1
    COL015    ROW009               1   ROW015               1
    COL015    ROW016              -1   ROW032               1
    COL015    ROW034               1
    COL016    ROW001            -475   ROW003               1
    COL016    ROW006             100   ROW008               1
    COL016    ROW009               1   ROW020               1
    COL016    ROW021              -1   ROW033               1
    COL016    ROW035               1
    COL017    ROW001            -315   ROW003               1
    COL017    ROW005             100   ROW015               1
    COL017    ROW017              -1   ROW024               1
    COL017    ROW032               1   ROW034               1
    COL018    ROW001            -315   ROW003               1
    COL018    ROW006             100   ROW020               1
    COL018    ROW022              -1   ROW025               1
    COL018    ROW033               1   ROW035               1
    COL019    ROW001            -140   ROW003               1
    COL019    ROW005             100   ROW015               1
    COL019    ROW018              -1   ROW024               1
    COL019    ROW032               1   ROW034               1
    COL020    ROW001            -140   ROW003               1
    COL020    ROW006             100   ROW020               1
    COL020    ROW023              -1   ROW025               1
    COL020    ROW033               1   ROW035               1
    COL021    ROW001            -470   ROW004               1
    COL021    ROW005             100   ROW010               1
    COL021    ROW012               1   ROW014              -1
    COL021    ROW016               1   ROW036               1
    COL021    ROW038               1
    COL022    ROW001            -470   ROW004               1
    COL022    ROW006             100   ROW010               1
    COL022    ROW012               1   ROW019              -1
    COL022    ROW021               1   ROW037               1
    COL022    ROW039               1
    COL023    ROW001            -475   ROW004               1
    COL023    ROW005             100   ROW010               1
    COL023    ROW011               1   ROW015              -1
    COL023    ROW016               1   ROW036               1
    COL023    ROW038               1
    COL024    ROW001            -475   ROW004               1
    COL024    ROW006             100   ROW010               1
    COL024    ROW011               1   ROW020              -1
    COL024    ROW021               1   ROW037               1
    COL024    ROW039               1
    COL025    ROW004               1   ROW005             100
    COL025    ROW036               1   ROW038               1
    COL026    ROW004               1   ROW006             100
    COL026    ROW037               1   ROW039               1
    COL027    ROW001            -290   ROW004               1
    COL027    ROW005             100   ROW016               1
    COL027    ROW017              -1   ROW024               1
    COL027    ROW036               1   ROW038               1
    COL028    ROW001            -290   ROW004               1
    COL028    ROW006             100   ROW021               1
    COL028    ROW022              -1   ROW025               1
    COL028    ROW037               1   ROW039               1
    COL029    ROW001            -355   ROW004               1
    COL029    ROW005             100   ROW016               1
    COL029    ROW018              -1   ROW024               1
    COL029    ROW036               1   ROW038               1
    COL030    ROW001            -355   ROW004               1
    COL030    ROW006             100   ROW021               1
    COL030    ROW023              -1   ROW025               1
    COL030    ROW037               1   ROW039               1
    COL031    ROW001            -250   ROW008               1
    COL031    ROW010               1   ROW012               1
    COL031    ROW013               1   ROW014              -1
    COL031    ROW017               1   ROW028               1
    COL031    ROW032               1   ROW036               1
    COL032    ROW001            -250   ROW008               1
    COL032    ROW010               1   ROW012               1
    COL032    ROW013               1   ROW019              -1
    COL032    ROW022               1   ROW029               1
    COL032    ROW033               1   ROW037               1
    COL033    ROW001            -315   ROW007               1
    COL033    ROW010               1   ROW011               1
    COL033    ROW013               1   ROW015              -1
    COL033    ROW017               1   ROW028               1
    COL033    ROW032               1   ROW036               1
    COL034    ROW001            -315   ROW007               1
    COL034    ROW010               1   ROW011               1
    COL034    ROW013               1   ROW020              -1
    COL034    ROW022               1   ROW029               1
    COL034    ROW033               1   ROW037               1
    COL035    ROW001            -290   ROW007               1
    COL035    ROW008               1   ROW009               1
    COL035    ROW013               1   ROW016              -1
    COL035    ROW017               1   ROW028               1
    COL035    ROW032               1   ROW036               1
    COL036    ROW001            -290   ROW007               1
    COL036    ROW008               1   ROW009               1
    COL036    ROW013               1   ROW021              -1
    COL036    ROW022               1   ROW029               1
    COL036    ROW033               1   ROW037               1
    COL037    ROW028               1   ROW032               1
    COL037    ROW036               1
    COL038    ROW029               1   ROW033               1
    COL038    ROW037               1
    COL039    ROW001            -285   ROW017               1
    COL039    ROW018              -1   ROW028               1
    COL039    ROW032               1   ROW036               1
    COL040    ROW001            -285   ROW022               1
    COL040    ROW023              -1   ROW029               1
    COL040    ROW033               1   ROW037               1
    COL041    ROW001            -205   ROW008               1
    COL041    ROW010               1   ROW012               1
    COL041    ROW013               1   ROW014              -1
    COL041    ROW018               1   ROW030               1
    COL041    ROW034               1   ROW038               1
    COL042    ROW001            -205   ROW008               1
    COL042    ROW010               1   ROW012               1
    COL042    ROW013               1   ROW019              -1
    COL042    ROW023               1   ROW031               1
    COL042    ROW035               1   ROW039               1
    COL043    ROW001            -140   ROW007               1
    COL043    ROW010               1   ROW011               1
    COL043    ROW013               1   ROW015              -1
    COL043    ROW018               1   ROW030               1
    COL043    ROW034               1   ROW038               1
    COL044    ROW001            -140   ROW007               1
    COL044    ROW010               1   ROW011               1
    COL044    ROW013               1   ROW020              -1
    COL044    ROW023               1   ROW031               1
    COL044    ROW035               1   ROW039               1
    COL045    ROW001            -355   ROW007               1
    COL045    ROW008               1   ROW009               1
    COL045    ROW013               1   ROW016              -1
    COL045    ROW018               1   ROW030               1
    COL045    ROW034               1   ROW038               1
    COL046    ROW001            -355   ROW007               1
    COL046    ROW008               1   ROW009               1
    COL046    ROW013               1   ROW021              -1
    COL046    ROW023               1   ROW031               1
    COL046    ROW035               1   ROW039               1
    COL047    ROW001            -285   ROW017              -1
    COL047    ROW018               1   ROW030               1
    COL047    ROW034               1   ROW038               1
    COL048    ROW001            -285   ROW022              -1
    COL048    ROW023               1   ROW031               1
    COL048    ROW035               1   ROW039               1
    COL049    ROW030               1   ROW034               1
    COL049    ROW038               1
    COL050    ROW031               1   ROW035               1
    COL050    ROW039               1
    COL051    ROW001            -300   ROW026            -300
    COL052    ROW001            -300   ROW027            -300
    COL053    ROW001             -75   ROW026             100
    COL053    ROW028              -1   ROW029              -1
    COL054    ROW001             -75   ROW027             100
    COL054    ROW030              -1   ROW031              -1
    COL055    ROW001             -75   ROW026             100
    COL055    ROW032              -1   ROW033              -1
    COL056    ROW001             -75   ROW027             100
    COL056    ROW034              -1   ROW035              -1
    COL057    ROW001             -75   ROW026             100
    COL057    ROW036              -1   ROW037              -1
    COL058    ROW001             -75   ROW027             100
    COL058    ROW038              -1   ROW039              -1
    MARK0001  'MARKER'                 'INTEND'
    COL059    ROW040               1   ROW001               1
RHS
    GRHS      ROW002               1   ROW003               1
    GRHS      ROW004               1   ROW005             200
    GRHS      ROW006             200   ROW007               1
    GRHS      ROW008               1   ROW009               1
    GRHS      ROW010               1   ROW011               1
    GRHS      ROW012               1   ROW013               1
    GRHS      ROW024               1   ROW025               1
    GRHS      ROW028               1   ROW029               1
    GRHS      ROW030               1   ROW031               1
    GRHS      ROW032               1   ROW033               1
    GRHS      ROW034               1   ROW035               1
    GRHS      ROW036               1   ROW037               1
    GRHS      ROW038               1   ROW039               1
BOUNDS
 UP GBND      COL001               1
 UP GBND      COL002               1
 UP GBND      COL003               1
 UP GBND      COL004               1
 UP GBND      COL005               1
 UP GBND      COL006               1
 UP GBND      COL007               1
 UP GBND      COL008               1
 UP GBND      COL009               1
 UP GBND      COL010               1
 UP GBND      COL011               1
 UP GBND      COL012               1
 UP GBND      COL013               1
 UP GBND      COL014               1
 UP GBND      COL015               1
 UP GBND      COL016               1
 UP GBND      COL017               1
 UP GBND      COL018               1
 UP GBND      COL019               1
 UP GBND      COL020               1
 UP GBND      COL021               1
 UP GBND      COL022               1
 UP GBND      COL023               1
 UP GBND      COL024               1
 UP GBND      COL025               1
 UP GBND      COL026               1
 UP GBND      COL027               1
 UP GBND      COL028               1
 UP GBND      COL029               1
 UP GBND      COL030               1
 UP GBND      COL031               1
 UP GBND      COL032               1
 UP GBND      COL033               1
 UP GBND      COL034               1
 UP GBND      COL035               1
 UP GBND      COL036               1
 UP GBND      COL037               1
 UP GBND      COL038               1
 UP GBND      COL039               1
 UP GBND      COL040               1
 UP GBND      COL041               1
 UP GBND      COL042               1
 UP GBND      COL043               1
 UP GBND      COL044               1
 UP GBND      COL045               1
 UP GBND      COL046               1
 UP GBND      COL047               1
 UP GBND      COL048               1
 UP GBND      COL049               1
 UP GBND      COL050               1
 UP GBND      COL051               1
 UP GBND      COL052               1
 UP GBND      COL053               1
 UP GBND      COL054               1
 UP GBND      COL055               1
 UP GBND      COL056               1
 UP GBND      COL057               1
 UP GBND      COL058               1
 FR GBND      COL059  
ENDATA
